NAME          DCAP_2_3_3_200_SS169
ROWS
 N  OBJ
 L  CON1
 L  CON2
 L  CON3
 L  CON4
 L  CON5
 L  CON6
 L  CON7
 L  CON8
 L  CON9
 L  CON10
 L  CON11
 L  CON12
 E  CON13
 E  CON14
 E  CON15
 E  CON16
 E  CON17
 E  CON18
 E  CON19
 E  CON20
 E  CON21
COLUMNS
    x[1,1]    OBJ       6.180167      CON1      1.000000    
    x[1,1]    CON7      -1.000000     CON8      -1.000000   
    x[1,1]    CON9      -1.000000   
    x[1,2]    OBJ       6.563535      CON2      1.000000    
    x[1,2]    CON8      -1.000000     CON9      -1.000000   
    x[1,3]    OBJ       7.443064      CON3      1.000000    
    x[1,3]    CON9      -1.000000   
    x[2,1]    OBJ       6.732585      CON4      1.000000    
    x[2,1]    CON10     -1.000000     CON11     -1.000000   
    x[2,1]    CON12     -1.000000   
    x[2,2]    OBJ       5.039546      CON5      1.000000    
    x[2,2]    CON11     -1.000000     CON12     -1.000000   
    x[2,3]    OBJ       6.054841      CON6      1.000000    
    x[2,3]    CON12     -1.000000   
    MARKER    'MARKER'                'INTORG'
    u[1,1]    OBJ       48.076654     CON1      -1.000000   
    u[1,2]    OBJ       20.066487     CON2      -1.000000   
    u[1,3]    OBJ       32.230043     CON3      -1.000000   
    u[2,1]    OBJ       49.996186     CON4      -1.000000   
    u[2,2]    OBJ       49.466655     CON5      -1.000000   
    u[2,3]    OBJ       27.484319     CON6      -1.000000   
    y[1,1,1]  OBJ       5.902542      CON7      0.766944    
    y[1,1,1]  CON13     1.000000    
    y[1,1,2]  OBJ       9.187819      CON8      1.068796    
    y[1,1,2]  CON14     1.000000    
    y[1,1,3]  OBJ       8.089703      CON9      0.776126    
    y[1,1,3]  CON15     1.000000    
    y[1,2,1]  OBJ       8.368897      CON7      0.649509    
    y[1,2,1]  CON16     1.000000    
    y[1,2,2]  OBJ       5.060600      CON8      1.164006    
    y[1,2,2]  CON17     1.000000    
    y[1,2,3]  OBJ       7.492050      CON9      1.190789    
    y[1,2,3]  CON18     1.000000    
    y[1,3,1]  OBJ       9.742117      CON7      0.961150    
    y[1,3,1]  CON19     1.000000    
    y[1,3,2]  OBJ       8.578746      CON8      1.070157    
    y[1,3,2]  CON20     1.000000    
    y[1,3,3]  OBJ       6.986634      CON9      1.118851    
    y[1,3,3]  CON21     1.000000    
    y[2,1,1]  OBJ       9.310029      CON10     0.766944    
    y[2,1,1]  CON13     1.000000    
    y[2,1,2]  OBJ       5.480931      CON11     1.068796    
    y[2,1,2]  CON14     1.000000    
    y[2,1,3]  OBJ       5.494135      CON12     0.776126    
    y[2,1,3]  CON15     1.000000    
    y[2,2,1]  OBJ       8.191102      CON10     0.649509    
    y[2,2,1]  CON16     1.000000    
    y[2,2,2]  OBJ       8.068787      CON11     1.164006    
    y[2,2,2]  CON17     1.000000    
    y[2,2,3]  OBJ       7.188540      CON12     1.190789    
    y[2,2,3]  CON18     1.000000    
    y[2,3,1]  OBJ       9.535947      CON10     0.961150    
    y[2,3,1]  CON19     1.000000    
    y[2,3,2]  OBJ       5.202933      CON11     1.070157    
    y[2,3,2]  CON20     1.000000    
    y[2,3,3]  OBJ       6.654737      CON12     1.118851    
    y[2,3,3]  CON21     1.000000    
    z[1,1]    OBJ       845.907481    CON13     1.000000    
    z[1,2]    OBJ       956.083512    CON14     1.000000    
    z[1,3]    OBJ       846.478746    CON15     1.000000    
    z[2,1]    OBJ       682.228128    CON16     1.000000    
    z[2,2]    OBJ       813.374700    CON17     1.000000    
    z[2,3]    OBJ       867.351585    CON18     1.000000    
    z[3,1]    OBJ       971.449390    CON19     1.000000    
    z[3,2]    OBJ       761.820709    CON20     1.000000    
    z[3,3]    OBJ       691.254800    CON21     1.000000    
    MARKER    'MARKER'                 'INTEND'
RHS
    RHS       CON1      -0.000000     CON2      -0.000000   
    RHS       CON3      -0.000000     CON4      -0.000000   
    RHS       CON5      -0.000000     CON6      -0.000000   
    RHS       CON7      -0.000000     CON8      -0.000000   
    RHS       CON9      -0.000000     CON10     -0.000000   
    RHS       CON11     -0.000000     CON12     -0.000000   
    RHS       CON13     1.000000      CON14     1.000000    
    RHS       CON15     1.000000      CON16     1.000000    
    RHS       CON17     1.000000      CON18     1.000000    
    RHS       CON19     1.000000      CON20     1.000000    
    RHS       CON21     1.000000    
BOUNDS
 BV BOUND     u[1,1]  
 BV BOUND     u[1,2]  
 BV BOUND     u[1,3]  
 BV BOUND     u[2,1]  
 BV BOUND     u[2,2]  
 BV BOUND     u[2,3]  
 BV BOUND     y[1,1,1]
 BV BOUND     y[1,1,2]
 BV BOUND     y[1,1,3]
 BV BOUND     y[1,2,1]
 BV BOUND     y[1,2,2]
 BV BOUND     y[1,2,3]
 BV BOUND     y[1,3,1]
 BV BOUND     y[1,3,2]
 BV BOUND     y[1,3,3]
 BV BOUND     y[2,1,1]
 BV BOUND     y[2,1,2]
 BV BOUND     y[2,1,3]
 BV BOUND     y[2,2,1]
 BV BOUND     y[2,2,2]
 BV BOUND     y[2,2,3]
 BV BOUND     y[2,3,1]
 BV BOUND     y[2,3,2]
 BV BOUND     y[2,3,3]
 BV BOUND     z[1,1]  
 BV BOUND     z[1,2]  
 BV BOUND     z[1,3]  
 BV BOUND     z[2,1]  
 BV BOUND     z[2,2]  
 BV BOUND     z[2,3]  
 BV BOUND     z[3,1]  
 BV BOUND     z[3,2]  
 BV BOUND     z[3,3]  
ENDATA
